GLPSOL: GLPK LP/MIP Solver, v4.55
Parameter(s) specified in the command line:
 -m tmp.mod
Reading model section from tmp.mod...
Reading data section from tmp.mod...
154 lines were read
Generating obj...
Generating kirhoff...
Generating init_charge...
Generating batt_size...
Model has been successfully generated
GLPK Simplex Optimizer, v4.55
86 rows, 152 columns, 278 non-zeros
Preprocessing...
66 rows, 119 columns, 233 non-zeros
Scaling...
 A: min|aij| =  1.000e+00  max|aij| =  1.000e+00  ratio =  1.000e+00
Problem data seem to be well scaled
Constructing initial basis...
Size of triangular part is 58
      0: obj =   0.000000000e+00  infeas =  7.900e+01 (8)
*    16: obj =   0.000000000e+00  infeas =  0.000e+00 (8)
OPTIMAL LP SOLUTION FOUND
Time used:   0.0 secs
Memory used: 0.4 Mb (391495 bytes)
#OUTPUT:
0
-8 -8 -16 0 0 -4 8 0 0 0 0 0 0 -4 -8 0 0 -17 0 0 0 0 
0 0 0 0 0 -18 0 0 0 0 0 0 0 -18 0 0 0 0 0 0 0 0 
-18 -8 -12 0 -12 0 4 0 0 0 0 0 0 0 -4 0 0 0 0 0 0 0 
#OUTPUT END
Model has been successfully processed
